(declare-fun X_0 () Real)
(declare-fun X_1 () Real)
(declare-fun Y_0 () Real)
(declare-fun Y_1 () Real)
(declare-fun Y_2 () Real)

(assert (<= X_0 -0.1))
(assert (>= X_0 -0.15))
(assert (<= X_1 1.8))
(assert (>= X_1 1.6))

(assert (<= Y_0 7.3))
(assert (>= Y_0 7.28))
(assert (<= Y_1 7.601))
(assert (>= Y_1 7.59))
(assert (<= Y_2 7.61))
(assert (>= Y_2 7.6))

